0 33 69 66 39 73 49 25 11 87
33 0 61 5 76 81 70 29 90 35
69 61 0 78 84 19 31 3 95 15
66 5 78 0 4 5 38 17 77 27
39 76 84 4 0 83 39 29 7 57
73 81 19 5 83 0 75 21 38 84
49 70 31 38 39 75 0 62 54 53
25 29 3 17 29 21 62 0 92 44
11 90 95 77 7 38 54 92 0 4
87 35 15 27 57 84 53 44 4 0
